
  22    4
  10   10   10   10

   0   0   0   0   0   4 2 4 5 9 
   1  10  10  10  10   3 18 7 3 
   8  10  10  10  10   3 13 11 6 
   5  10  10  10  10   3 18 11 6 
   7  10  10  10  10   4 18 11 10 8 
  10  10  10  10  10   3 15 12 10 
   9  10  10  10  10   4 17 15 14 12 
   9  10  10  10  10   3 21 16 15 
   6  10  10  10  10   1 10 
   3  10  10  10  10   2 21 14 
   2  10  10  10  10   2 17 15 
   1  10  10  10  10   2 19 16 
   2  10  10  10  10   1 14 
   3  10  10  10  10   2 20 19 
   1  10  10  10  10   1 19 
   5  10  10  10  10   1 20 
   5  10  10  10  10   1 20 
   2  10  10  10  10   1 19 
   8  10  10  10  10   1 22
   8  10  10  10  10   1 22
   1  10  10  10  10   1 22
   0   0   0   0   0   0 
